2401 0
4802 0
7203 0
9604 0
12005 0
14406 0
16807 0
19208 0
21609 0
24010 0
26411 0
28812 0
31213 0
33614 0
36015 0
38416 0
40817 0
43218 0
45619 0
48020 0
50421 0
52822 0
55223 0
57624 0
60025 0
62426 0
64827 0
67228 0
69629 0
72030 0
74431 0
76832 0
79233 0
81634 0
84035 0
86436 0
88837 0
91238 0
93639 0
96040 0
